p cnf 223 2811
-12 0
-13 0
17 0
48 0
59 0
62 0
63 0
64 0
95 0
171 0
177 0
-5 -11 0
-5 -14 0
-5 -16 0
-5 -35 0
-5 -40 0
-5 -56 0
-5 -88 0
-5 -111 0
-5 -161 0
-5 -170 0
-5 -172 0
-5 -173 0
-5 -184 0
-5 -185 0
-5 -204 0
-5 -205 0
-11 -14 0
-11 -16 0
-11 -35 0
-11 -40 0
-11 -56 0
-11 -88 0
-11 -111 0
-11 -161 0
-11 -170 0
-11 -172 0
-11 -173 0
-11 -184 0
-11 -185 0
-11 -204 0
-11 -205 0
-14 -16 0
-14 -35 0
-14 -40 0
-14 -56 0
-14 -88 0
-14 -111 0
-14 -161 0
-14 -170 0
-14 -172 0
-14 -173 0
-14 -184 0
-14 -185 0
-14 -204 0
-14 -205 0
-16 -35 0
-16 -40 0
-16 -56 0
-16 -88 0
-16 -111 0
-16 -161 0
-16 -170 0
-16 -172 0
-16 -173 0
-16 -184 0
-16 -185 0
-16 -204 0
-16 -205 0
-35 -40 0
-35 -56 0
-35 -88 0
-35 -111 0
-35 -161 0
-35 -170 0
-35 -172 0
-35 -173 0
-35 -184 0
-35 -185 0
-35 -204 0
-35 -205 0
-40 -56 0
-40 -88 0
-40 -111 0
-40 -161 0
-40 -170 0
-40 -172 0
-40 -173 0
-40 -184 0
-40 -185 0
-40 -204 0
-40 -205 0
-56 -88 0
-56 -111 0
-56 -161 0
-56 -170 0
-56 -172 0
-56 -173 0
-56 -184 0
-56 -185 0
-56 -204 0
-56 -205 0
-88 -111 0
-88 -161 0
-88 -170 0
-88 -172 0
-88 -173 0
-88 -184 0
-88 -185 0
-88 -204 0
-88 -205 0
-111 -161 0
-111 -170 0
-111 -172 0
-111 -173 0
-111 -184 0
-111 -185 0
-111 -204 0
-111 -205 0
-161 -170 0
-161 -172 0
-161 -173 0
-161 -184 0
-161 -185 0
-161 -204 0
-161 -205 0
-170 -172 0
-170 -173 0
-170 -184 0
-170 -185 0
-170 -204 0
-170 -205 0
-172 -173 0
-172 -184 0
-172 -185 0
-172 -204 0
-172 -205 0
-173 -184 0
-173 -185 0
-173 -204 0
-173 -205 0
-184 -185 0
-184 -204 0
-184 -205 0
-185 -204 0
-185 -205 0
-204 -205 0
5 11 14 16 35 40 56 88 111 161 170 172 173 184 185 204 205 0
-6 -7 0
-6 -38 0
-6 -39 0
-7 -38 0
-7 -39 0
-38 -39 0
-8 -9 0
-8 -10 0
-9 -10 0
8 9 10 0
17 0
-18 -19 0
-18 -20 0
-18 -21 0
-18 -22 0
-18 -23 0
-18 -24 0
-18 -25 0
-18 -26 0
-19 -20 0
-19 -21 0
-19 -22 0
-19 -23 0
-19 -24 0
-19 -25 0
-19 -26 0
-20 -21 0
-20 -22 0
-20 -23 0
-20 -24 0
-20 -25 0
-20 -26 0
-21 -22 0
-21 -23 0
-21 -24 0
-21 -25 0
-21 -26 0
-22 -23 0
-22 -24 0
-22 -25 0
-22 -26 0
-23 -24 0
-23 -25 0
-23 -26 0
-24 -25 0
-24 -26 0
-25 -26 0
18 19 20 21 22 23 24 25 26 0
-27 -36 0
-27 -37 0
-27 -51 0
-36 -37 0
-36 -51 0
-37 -51 0
-29 -30 0
-29 -31 0
-30 -31 0
29 30 31 0
-32 -33 0
-32 -34 0
-32 -201 0
-32 -202 0
-32 -210 0
-32 -211 0
-33 -34 0
-33 -201 0
-33 -202 0
-33 -210 0
-33 -211 0
-34 -201 0
-34 -202 0
-34 -210 0
-34 -211 0
-201 -202 0
-201 -210 0
-201 -211 0
-202 -210 0
-202 -211 0
-210 -211 0
-41 -42 0
-41 -43 0
-41 -44 0
-41 -45 0
-41 -46 0
-42 -43 0
-42 -44 0
-42 -45 0
-42 -46 0
-43 -44 0
-43 -45 0
-43 -46 0
-44 -45 0
-44 -46 0
-45 -46 0
48 0
-49 -50 0
-53 -54 0
-53 -55 0
-54 -55 0
59 0
-61 -66 0
-61 -67 0
-61 -68 0
-61 -69 0
-61 -70 0
-61 -160 0
-66 -67 0
-66 -68 0
-66 -69 0
-66 -70 0
-66 -160 0
-67 -68 0
-67 -69 0
-67 -70 0
-67 -160 0
-68 -69 0
-68 -70 0
-68 -160 0
-69 -70 0
-69 -160 0
-70 -160 0
61 66 67 68 69 70 160 0
62 0
63 0
64 0
-65 -217 0
-65 -218 0
-217 -218 0
-71 -72 0
-71 -73 0
-72 -73 0
-74 -75 0
-74 -76 0
-74 -77 0
-74 -93 0
-74 -94 0
-75 -76 0
-75 -77 0
-75 -93 0
-75 -94 0
-76 -77 0
-76 -93 0
-76 -94 0
-77 -93 0
-77 -94 0
-93 -94 0
-79 -80 0
-79 -81 0
-79 -82 0
-79 -83 0
-80 -81 0
-80 -82 0
-80 -83 0
-81 -82 0
-81 -83 0
-82 -83 0
-84 -85 0
-84 -86 0
-85 -86 0
-92 -216 0
95 0
-97 -98 0
-99 -100 0
99 100 0
-109 -110 0
109 110 0
-142 -144 0
-142 -145 0
-142 -146 0
-142 -147 0
-142 -166 0
-142 -174 0
-142 -175 0
-142 -178 0
-142 -180 0
-142 -182 0
-142 -183 0
-142 -219 0
-142 -220 0
-142 -221 0
-142 -222 0
-142 -223 0
-144 -145 0
-144 -146 0
-144 -147 0
-144 -166 0
-144 -174 0
-144 -175 0
-144 -178 0
-144 -180 0
-144 -182 0
-144 -183 0
-144 -219 0
-144 -220 0
-144 -221 0
-144 -222 0
-144 -223 0
-145 -146 0
-145 -147 0
-145 -166 0
-145 -174 0
-145 -175 0
-145 -178 0
-145 -180 0
-145 -182 0
-145 -183 0
-145 -219 0
-145 -220 0
-145 -221 0
-145 -222 0
-145 -223 0
-146 -147 0
-146 -166 0
-146 -174 0
-146 -175 0
-146 -178 0
-146 -180 0
-146 -182 0
-146 -183 0
-146 -219 0
-146 -220 0
-146 -221 0
-146 -222 0
-146 -223 0
-147 -166 0
-147 -174 0
-147 -175 0
-147 -178 0
-147 -180 0
-147 -182 0
-147 -183 0
-147 -219 0
-147 -220 0
-147 -221 0
-147 -222 0
-147 -223 0
-166 -174 0
-166 -175 0
-166 -178 0
-166 -180 0
-166 -182 0
-166 -183 0
-166 -219 0
-166 -220 0
-166 -221 0
-166 -222 0
-166 -223 0
-174 -175 0
-174 -178 0
-174 -180 0
-174 -182 0
-174 -183 0
-174 -219 0
-174 -220 0
-174 -221 0
-174 -222 0
-174 -223 0
-175 -178 0
-175 -180 0
-175 -182 0
-175 -183 0
-175 -219 0
-175 -220 0
-175 -221 0
-175 -222 0
-175 -223 0
-178 -180 0
-178 -182 0
-178 -183 0
-178 -219 0
-178 -220 0
-178 -221 0
-178 -222 0
-178 -223 0
-180 -182 0
-180 -183 0
-180 -219 0
-180 -220 0
-180 -221 0
-180 -222 0
-180 -223 0
-182 -183 0
-182 -219 0
-182 -220 0
-182 -221 0
-182 -222 0
-182 -223 0
-183 -219 0
-183 -220 0
-183 -221 0
-183 -222 0
-183 -223 0
-219 -220 0
-219 -221 0
-219 -222 0
-219 -223 0
-220 -221 0
-220 -222 0
-220 -223 0
-221 -222 0
-221 -223 0
-222 -223 0
142 144 145 146 147 166 174 175 178 180 182 183 219 220 221 222 223 0
-162 -163 0
-162 -167 0
-162 -168 0
-162 -169 0
-162 -181 0
-163 -167 0
-163 -168 0
-163 -169 0
-163 -181 0
-167 -168 0
-167 -169 0
-167 -181 0
-168 -169 0
-168 -181 0
-169 -181 0
-164 -165 0
164 165 0
171 0
177 0
-193 -194 0
-193 -195 0
-194 -195 0
193 194 195 0
-197 -198 0
-197 -199 0
-197 -200 0
-198 -199 0
-198 -200 0
-199 -200 0
-207 -208 0
-207 -212 0
-207 -213 0
-207 -214 0
-208 -212 0
-208 -213 0
-208 -214 0
-212 -213 0
-212 -214 0
-213 -214 0
207 208 212 213 214 0
-1 90 0
-2 1 0
-3 193 0
-3 -142 0
-3 -195 0
-3 -207 0
-5 -16 0
-8 -9 0
-10 -9 0
-11 -16 0
-14 -16 0
-18 70 0
-18 -66 0
-19 -66 0
-20 69 0
-20 -66 0
-21 -66 0
-22 160 0
-22 -66 0
-23 -66 0
-24 -66 0
-25 -66 0
-26 -66 0
-28 203 0
-28 89 0
-28 193 0
-28 -142 0
-28 -195 0
-31 -30 0
-35 -16 0
-40 -16 0
-41 193 0
-41 -195 0
-42 193 0
-42 -195 0
-43 193 0
-43 -195 0
-44 193 0
-44 -195 0
-45 193 0
-45 -195 0
-46 3 0
-46 193 0
-46 -142 0
-46 -195 0
-46 -207 0
-52 89 0
-56 -16 0
-61 -66 0
-67 -66 0
-68 -66 0
-69 -66 0
-70 -66 0
-88 -16 0
-90 1 0
-100 -207 0
-100 -99 0
-109 -110 0
-111 -16 0
-141 89 0
-143 203 0
-143 28 0
-143 89 0
-143 193 0
-143 -142 0
-143 -195 0
-144 -142 0
-145 -142 0
-146 -142 0
-147 -142 0
-160 -66 0
-161 -16 0
-164 96 0
-164 -165 0
-166 -142 0
-170 -16 0
-172 -16 0
-173 -16 0
-174 -142 0
-175 -142 0
-178 -142 0
-180 -142 0
-182 -142 0
-183 -142 0
-184 -16 0
-185 -16 0
-189 96 0
-193 -195 0
-194 -30 0
-194 -195 0
-203 28 0
-203 89 0
-203 193 0
-203 -142 0
-203 -195 0
-204 -16 0
-205 -16 0
-208 -207 0
-212 -207 0
-213 -207 0
-214 -207 0
-219 89 0
-219 203 0
-219 28 0
-219 193 0
-219 -195 0
-219 -142 0
-220 89 0
-220 203 0
-220 28 0
-220 193 0
-220 -195 0
-220 -142 0
-221 89 0
-221 203 0
-221 28 0
-221 193 0
-221 -195 0
-221 -142 0
-222 89 0
-222 203 0
-222 28 0
-222 193 0
-222 -195 0
-222 -142 0
-223 -142 0
-1 90 0
-2 1 0
-3 193 0
-3 -142 0
-3 -195 0
-3 -207 0
-5 -16 0
-8 -9 0
-10 -9 0
-11 -16 0
-14 -16 0
-20 69 0
-20 -70 0
-22 160 0
-22 -70 0
-28 203 0
-28 89 0
-28 193 0
-28 -142 0
-28 -195 0
-31 -30 0
-35 -16 0
-40 -16 0
-41 193 0
-41 -195 0
-42 193 0
-42 -195 0
-43 193 0
-43 -195 0
-44 193 0
-44 -195 0
-45 193 0
-45 -195 0
-46 3 0
-46 193 0
-46 -142 0
-46 -195 0
-46 -207 0
-52 89 0
-56 -16 0
-61 -70 0
-67 -70 0
-68 -70 0
-69 -70 0
-88 -16 0
-90 1 0
-100 -207 0
-100 -99 0
-104 -70 0
-109 -110 0
-111 -16 0
-141 89 0
-143 203 0
-143 28 0
-143 89 0
-143 193 0
-143 -142 0
-143 -195 0
-144 -142 0
-145 -142 0
-146 -142 0
-147 -142 0
-160 -70 0
-161 -16 0
-164 96 0
-164 -165 0
-166 -142 0
-170 -16 0
-172 -16 0
-173 -16 0
-174 -142 0
-175 -142 0
-178 -142 0
-180 -142 0
-182 -142 0
-183 -142 0
-184 -16 0
-185 -16 0
-189 96 0
-193 -195 0
-194 -30 0
-194 -195 0
-203 28 0
-203 89 0
-203 193 0
-203 -142 0
-203 -195 0
-204 -16 0
-205 -16 0
-208 -207 0
-212 -207 0
-213 -207 0
-214 -207 0
-219 89 0
-219 203 0
-219 28 0
-219 193 0
-219 -195 0
-219 -142 0
-220 89 0
-220 203 0
-220 28 0
-220 193 0
-220 -195 0
-220 -142 0
-221 89 0
-221 203 0
-221 28 0
-221 193 0
-221 -195 0
-221 -142 0
-222 89 0
-222 203 0
-222 28 0
-222 193 0
-222 -195 0
-222 -142 0
-223 -142 0
-1 90 0
-2 1 0
-3 193 0
-3 -142 0
-3 -195 0
-3 -207 0
-5 -16 0
-8 -9 0
-10 -9 0
-11 -16 0
-14 -16 0
-18 70 0
-18 -160 0
-20 69 0
-20 -160 0
-28 203 0
-28 89 0
-28 193 0
-28 -142 0
-28 -195 0
-31 -30 0
-35 -16 0
-40 -16 0
-41 193 0
-41 -195 0
-42 193 0
-42 -195 0
-43 193 0
-43 -195 0
-44 193 0
-44 -195 0
-45 193 0
-45 -195 0
-46 3 0
-46 193 0
-46 -142 0
-46 -195 0
-46 -207 0
-52 89 0
-56 -16 0
-61 -160 0
-67 -160 0
-68 -160 0
-69 -160 0
-70 -160 0
-88 -16 0
-90 1 0
-100 -207 0
-100 -99 0
-109 -110 0
-111 -16 0
-141 89 0
-143 203 0
-143 28 0
-143 89 0
-143 193 0
-143 -142 0
-143 -195 0
-144 -142 0
-145 -142 0
-146 -142 0
-147 -142 0
-161 -16 0
-164 96 0
-164 -165 0
-166 -142 0
-170 -16 0
-172 -16 0
-173 -16 0
-174 -142 0
-175 -142 0
-178 -142 0
-180 -142 0
-182 -142 0
-183 -142 0
-184 -16 0
-185 -16 0
-189 96 0
-193 -195 0
-194 -30 0
-194 -195 0
-203 28 0
-203 89 0
-203 193 0
-203 -142 0
-203 -195 0
-204 -16 0
-205 -16 0
-208 -207 0
-212 -207 0
-213 -207 0
-214 -207 0
-219 89 0
-219 203 0
-219 28 0
-219 193 0
-219 -195 0
-219 -142 0
-220 89 0
-220 203 0
-220 28 0
-220 193 0
-220 -195 0
-220 -142 0
-221 89 0
-221 203 0
-221 28 0
-221 193 0
-221 -195 0
-221 -142 0
-222 89 0
-222 203 0
-222 28 0
-222 193 0
-222 -195 0
-222 -142 0
-223 -142 0
-1 90 0
-2 1 0
-3 193 0
-3 -142 0
-3 -195 0
-3 -207 0
-5 -16 0
-8 -9 0
-10 -9 0
-11 -16 0
-14 -16 0
-19 -18 0
-20 69 0
-20 -70 0
-20 -18 0
-21 -18 0
-22 160 0
-22 -70 0
-22 -18 0
-23 -18 0
-24 -18 0
-25 -18 0
-26 -18 0
-28 203 0
-28 89 0
-28 193 0
-28 -142 0
-28 -195 0
-31 -30 0
-35 -16 0
-40 -16 0
-41 193 0
-41 -195 0
-42 193 0
-42 -195 0
-43 193 0
-43 -195 0
-44 193 0
-44 -195 0
-45 193 0
-45 -195 0
-46 3 0
-46 193 0
-46 -142 0
-46 -195 0
-46 -207 0
-52 89 0
-56 -16 0
-61 -18 0
-61 -70 0
-67 -18 0
-67 -70 0
-68 -18 0
-68 -70 0
-69 20 0
-69 -18 0
-69 -70 0
-88 -16 0
-90 1 0
-100 -207 0
-100 -99 0
-104 -18 0
-104 -70 0
-109 -110 0
-111 -16 0
-141 89 0
-143 203 0
-143 28 0
-143 89 0
-143 193 0
-143 -142 0
-143 -195 0
-144 -142 0
-145 -142 0
-146 -142 0
-147 -142 0
-160 -18 0
-160 -70 0
-161 -16 0
-164 96 0
-164 -165 0
-166 -142 0
-170 -16 0
-172 -16 0
-173 -16 0
-174 -142 0
-175 -142 0
-178 -142 0
-180 -142 0
-182 -142 0
-183 -142 0
-184 -16 0
-185 -16 0
-189 96 0
-193 -195 0
-194 -30 0
-194 -195 0
-203 28 0
-203 89 0
-203 193 0
-203 -142 0
-203 -195 0
-204 -16 0
-205 -16 0
-208 -207 0
-212 -207 0
-213 -207 0
-214 -207 0
-219 89 0
-219 203 0
-219 28 0
-219 193 0
-219 -195 0
-219 -142 0
-220 89 0
-220 203 0
-220 28 0
-220 193 0
-220 -195 0
-220 -142 0
-221 89 0
-221 203 0
-221 28 0
-221 193 0
-221 -195 0
-221 -142 0
-222 89 0
-222 203 0
-222 28 0
-222 193 0
-222 -195 0
-222 -142 0
-223 -142 0
-1 90 0
-2 1 0
-3 193 0
-3 -142 0
-3 -195 0
-3 -207 0
-5 -16 0
-8 -9 0
-10 -9 0
-11 -16 0
-14 -16 0
-18 70 0
-18 -69 0
-18 -20 0
-19 -69 0
-19 -20 0
-21 -69 0
-21 -20 0
-22 160 0
-22 -69 0
-22 -20 0
-23 -69 0
-23 -20 0
-24 -69 0
-24 -20 0
-25 -69 0
-25 -20 0
-26 -69 0
-26 -20 0
-28 203 0
-28 89 0
-28 193 0
-28 -142 0
-28 -195 0
-31 -30 0
-35 -16 0
-40 -16 0
-41 193 0
-41 -195 0
-42 193 0
-42 -195 0
-43 193 0
-43 -195 0
-44 193 0
-44 -195 0
-45 193 0
-45 -195 0
-46 3 0
-46 193 0
-46 -142 0
-46 -195 0
-46 -207 0
-52 89 0
-56 -16 0
-61 -20 0
-61 -69 0
-67 -20 0
-67 -69 0
-68 -20 0
-68 -69 0
-70 -20 0
-70 -69 0
-88 -16 0
-90 1 0
-100 -207 0
-100 -99 0
-104 -20 0
-109 -110 0
-111 -16 0
-141 89 0
-143 203 0
-143 28 0
-143 89 0
-143 193 0
-143 -142 0
-143 -195 0
-144 -142 0
-145 -142 0
-146 -142 0
-147 -142 0
-160 -20 0
-160 -69 0
-161 -16 0
-164 96 0
-164 -165 0
-166 -142 0
-170 -16 0
-172 -16 0
-173 -16 0
-174 -142 0
-175 -142 0
-178 -142 0
-180 -142 0
-182 -142 0
-183 -142 0
-184 -16 0
-185 -16 0
-189 96 0
-193 -195 0
-194 -30 0
-194 -195 0
-203 28 0
-203 89 0
-203 193 0
-203 -142 0
-203 -195 0
-204 -16 0
-205 -16 0
-208 -207 0
-212 -207 0
-213 -207 0
-214 -207 0
-219 89 0
-219 203 0
-219 28 0
-219 193 0
-219 -195 0
-219 -142 0
-220 89 0
-220 203 0
-220 28 0
-220 193 0
-220 -195 0
-220 -142 0
-221 89 0
-221 203 0
-221 28 0
-221 193 0
-221 -195 0
-221 -142 0
-222 89 0
-222 203 0
-222 28 0
-222 193 0
-222 -195 0
-222 -142 0
-223 -142 0
-1 90 0
-2 1 0
-3 193 0
-3 -142 0
-3 -195 0
-3 -207 0
-5 -16 0
-8 -9 0
-10 -9 0
-11 -16 0
-14 -16 0
-18 -21 0
-19 -21 0
-20 69 0
-20 -70 0
-20 -21 0
-22 160 0
-22 -70 0
-22 -21 0
-23 -21 0
-24 -21 0
-25 -21 0
-26 -21 0
-28 203 0
-28 89 0
-28 193 0
-28 -142 0
-28 -195 0
-31 -30 0
-35 -16 0
-40 -16 0
-41 193 0
-41 -195 0
-42 193 0
-42 -195 0
-43 193 0
-43 -195 0
-44 193 0
-44 -195 0
-45 193 0
-45 -195 0
-46 3 0
-46 193 0
-46 -142 0
-46 -195 0
-46 -207 0
-52 89 0
-56 -16 0
-61 -21 0
-61 -70 0
-67 -21 0
-67 -70 0
-68 -21 0
-68 -70 0
-69 20 0
-69 -21 0
-69 -70 0
-88 -16 0
-90 1 0
-100 -207 0
-100 -99 0
-104 -21 0
-104 -70 0
-109 -110 0
-111 -16 0
-141 89 0
-143 203 0
-143 28 0
-143 89 0
-143 193 0
-143 -142 0
-143 -195 0
-144 -142 0
-145 -142 0
-146 -142 0
-147 -142 0
-160 -70 0
-161 -16 0
-164 96 0
-164 -165 0
-166 -142 0
-170 -16 0
-172 -16 0
-173 -16 0
-174 -142 0
-175 -142 0
-178 -142 0
-180 -142 0
-182 -142 0
-183 -142 0
-184 -16 0
-185 -16 0
-189 96 0
-193 -195 0
-194 -30 0
-194 -195 0
-203 28 0
-203 89 0
-203 193 0
-203 -142 0
-203 -195 0
-204 -16 0
-205 -16 0
-208 -207 0
-212 -207 0
-213 -207 0
-214 -207 0
-219 89 0
-219 203 0
-219 28 0
-219 193 0
-219 -195 0
-219 -142 0
-220 89 0
-220 203 0
-220 28 0
-220 193 0
-220 -195 0
-220 -142 0
-221 89 0
-221 203 0
-221 28 0
-221 193 0
-221 -195 0
-221 -142 0
-222 89 0
-222 203 0
-222 28 0
-222 193 0
-222 -195 0
-222 -142 0
-223 -142 0
-1 70 0
-1 90 0
-1 -66 0
-2 1 0
-2 70 0
-2 -66 0
-3 70 0
-3 193 0
-3 -66 0
-3 -142 0
-3 -195 0
-3 -207 0
-4 70 0
-4 -66 0
-5 70 0
-5 -66 0
-5 -16 0
-6 70 0
-6 -66 0
-7 70 0
-7 -66 0
-8 70 0
-8 -66 0
-8 -9 0
-10 70 0
-10 -66 0
-10 -9 0
-11 70 0
-11 -66 0
-11 -16 0
-14 70 0
-14 -66 0
-14 -16 0
-15 70 0
-15 -66 0
-16 70 0
-16 -66 0
-18 70 0
-18 -66 0
-19 -66 0
-19 -18 0
-20 69 0
-20 -66 0
-20 -18 0
-21 -66 0
-21 -18 0
-22 160 0
-22 -66 0
-22 -18 0
-23 -66 0
-23 -18 0
-24 -66 0
-24 -18 0
-25 -66 0
-25 -18 0
-26 -66 0
-26 -18 0
-27 70 0
-27 -66 0
-28 203 0
-28 70 0
-28 89 0
-28 193 0
-28 -66 0
-28 -142 0
-28 -195 0
-29 70 0
-29 -66 0
-31 70 0
-31 -66 0
-31 -30 0
-32 70 0
-32 -66 0
-33 70 0
-33 -66 0
-34 70 0
-34 -66 0
-35 70 0
-35 -66 0
-35 -16 0
-36 70 0
-36 -66 0
-37 70 0
-37 -66 0
-38 70 0
-38 -66 0
-39 70 0
-39 -66 0
-40 70 0
-40 -66 0
-40 -16 0
-41 70 0
-41 193 0
-41 -66 0
-41 -195 0
-42 70 0
-42 193 0
-42 -66 0
-42 -195 0
-43 70 0
-43 193 0
-43 -66 0
-43 -195 0
-44 70 0
-44 193 0
-44 -66 0
-44 -195 0
-45 70 0
-45 193 0
-45 -66 0
-45 -195 0
-46 70 0
-46 193 0
-46 3 0
-46 -66 0
-46 -142 0
-46 -195 0
-46 -207 0
-47 70 0
-47 -66 0
-49 70 0
-49 -66 0
-50 70 0
-50 -66 0
-51 70 0
-51 -66 0
-52 70 0
-52 89 0
-52 -66 0
-53 70 0
-53 -66 0
-54 70 0
-54 -66 0
-55 70 0
-55 -66 0
-56 70 0
-56 -66 0
-56 -16 0
-57 70 0
-57 -66 0
-58 70 0
-58 -66 0
-60 70 0
-60 -66 0
-61 -18 0
-61 -66 0
-65 70 0
-65 -66 0
-67 -18 0
-67 -66 0
-68 -18 0
-68 -66 0
-69 20 0
-69 -18 0
-69 -66 0
-70 -66 0
-71 70 0
-71 -66 0
-72 70 0
-72 -66 0
-73 70 0
-73 -66 0
-74 70 0
-74 -66 0
-75 70 0
-75 -66 0
-76 70 0
-76 -66 0
-77 70 0
-77 -66 0
-78 70 0
-78 -66 0
-79 70 0
-79 -66 0
-80 70 0
-80 -66 0
-81 70 0
-81 -66 0
-82 70 0
-82 -66 0
-83 70 0
-83 -66 0
-84 70 0
-84 -66 0
-85 70 0
-85 -66 0
-86 70 0
-86 -66 0
-87 70 0
-87 -66 0
-88 70 0
-88 -66 0
-88 -16 0
-89 70 0
-89 -66 0
-90 1 0
-90 70 0
-90 -66 0
-91 70 0
-91 -66 0
-92 70 0
-92 -66 0
-93 70 0
-93 -66 0
-94 70 0
-94 -66 0
-96 70 0
-96 -66 0
-97 70 0
-97 -66 0
-98 70 0
-98 -66 0
-100 70 0
-100 -66 0
-100 -207 0
-100 -99 0
-101 70 0
-101 -66 0
-102 70 0
-102 -66 0
-103 70 0
-103 -66 0
-104 -18 0
-105 70 0
-105 -66 0
-106 70 0
-106 -66 0
-107 70 0
-107 -66 0
-108 70 0
-108 -66 0
-109 70 0
-109 -66 0
-109 -110 0
-111 70 0
-111 -66 0
-111 -16 0
-112 70 0
-112 -66 0
-113 70 0
-113 -66 0
-114 70 0
-114 -66 0
-115 70 0
-115 -66 0
-116 70 0
-116 -66 0
-117 70 0
-117 -66 0
-118 70 0
-118 -66 0
-119 70 0
-119 -66 0
-120 70 0
-120 -66 0
-121 70 0
-121 -66 0
-122 70 0
-122 -66 0
-123 70 0
-123 -66 0
-124 70 0
-124 -66 0
-125 70 0
-125 -66 0
-126 70 0
-126 -66 0
-127 70 0
-127 -66 0
-128 70 0
-128 -66 0
-129 70 0
-129 -66 0
-130 70 0
-130 -66 0
-131 70 0
-131 -66 0
-132 70 0
-132 -66 0
-133 70 0
-133 -66 0
-134 70 0
-134 -66 0
-135 70 0
-135 -66 0
-136 70 0
-136 -66 0
-137 70 0
-137 -66 0
-138 70 0
-138 -66 0
-139 70 0
-139 -66 0
-140 70 0
-140 -66 0
-141 70 0
-141 89 0
-141 -66 0
-142 70 0
-142 -66 0
-143 203 0
-143 28 0
-143 70 0
-143 89 0
-143 193 0
-143 -66 0
-143 -142 0
-143 -195 0
-144 70 0
-144 -66 0
-144 -142 0
-145 70 0
-145 -66 0
-145 -142 0
-146 70 0
-146 -66 0
-146 -142 0
-147 70 0
-147 -66 0
-147 -142 0
-148 70 0
-148 -66 0
-149 70 0
-149 -66 0
-150 70 0
-150 -66 0
-151 70 0
-151 -66 0
-152 70 0
-152 -66 0
-153 70 0
-153 -66 0
-154 70 0
-154 -66 0
-155 70 0
-155 -66 0
-156 70 0
-156 -66 0
-157 70 0
-157 -66 0
-158 70 0
-158 -66 0
-159 70 0
-159 -66 0
-160 -18 0
-160 -66 0
-161 70 0
-161 -66 0
-161 -16 0
-162 70 0
-162 -66 0
-163 70 0
-163 -66 0
-164 70 0
-164 96 0
-164 -66 0
-164 -165 0
-166 70 0
-166 -66 0
-166 -142 0
-167 70 0
-167 -66 0
-168 70 0
-168 -66 0
-169 70 0
-169 -66 0
-170 70 0
-170 -66 0
-170 -16 0
-172 70 0
-172 -66 0
-172 -16 0
-173 70 0
-173 -66 0
-173 -16 0
-174 70 0
-174 -66 0
-174 -142 0
-175 70 0
-175 -66 0
-175 -142 0
-176 70 0
-176 -66 0
-178 70 0
-178 -66 0
-178 -142 0
-179 70 0
-179 -66 0
-180 70 0
-180 -66 0
-180 -142 0
-181 70 0
-181 -66 0
-182 70 0
-182 -66 0
-182 -142 0
-183 70 0
-183 -66 0
-183 -142 0
-184 70 0
-184 -66 0
-184 -16 0
-185 70 0
-185 -66 0
-185 -16 0
-186 70 0
-186 -66 0
-187 70 0
-187 -66 0
-188 70 0
-188 -66 0
-189 70 0
-189 96 0
-189 -66 0
-190 70 0
-190 -66 0
-191 70 0
-191 -66 0
-192 70 0
-192 -66 0
-193 70 0
-193 -66 0
-193 -195 0
-194 70 0
-194 -30 0
-194 -66 0
-194 -195 0
-196 70 0
-196 -66 0
-197 70 0
-197 -66 0
-198 70 0
-198 -66 0
-199 70 0
-199 -66 0
-200 70 0
-200 -66 0
-201 70 0
-201 -66 0
-202 70 0
-202 -66 0
-203 28 0
-203 70 0
-203 89 0
-203 193 0
-203 -66 0
-203 -142 0
-203 -195 0
-204 70 0
-204 -66 0
-204 -16 0
-205 70 0
-205 -66 0
-205 -16 0
-206 70 0
-206 -66 0
-208 70 0
-208 -66 0
-208 -207 0
-209 70 0
-209 -66 0
-210 70 0
-210 -66 0
-211 70 0
-211 -66 0
-212 70 0
-212 -66 0
-212 -207 0
-213 70 0
-213 -66 0
-213 -207 0
-214 70 0
-214 -66 0
-214 -207 0
-215 70 0
-215 -66 0
-216 70 0
-216 -66 0
-217 70 0
-217 -66 0
-218 70 0
-218 -66 0
-219 203 0
-219 28 0
-219 70 0
-219 89 0
-219 193 0
-219 -66 0
-219 -195 0
-219 -142 0
-220 203 0
-220 28 0
-220 70 0
-220 89 0
-220 193 0
-220 -66 0
-220 -195 0
-220 -142 0
-221 203 0
-221 28 0
-221 70 0
-221 89 0
-221 193 0
-221 -66 0
-221 -195 0
-221 -142 0
-222 203 0
-222 28 0
-222 70 0
-222 89 0
-222 193 0
-222 -66 0
-222 -195 0
-222 -142 0
-223 70 0
-223 -66 0
-223 -142 0
-1 70 0
-1 90 0
-1 -66 0
-2 1 0
-2 70 0
-2 -66 0
-3 70 0
-3 193 0
-3 -66 0
-3 -142 0
-3 -195 0
-3 -207 0
-4 70 0
-4 -66 0
-5 70 0
-5 -66 0
-5 -205 0
-6 70 0
-6 -66 0
-7 70 0
-7 -66 0
-8 70 0
-8 -66 0
-8 -9 0
-10 70 0
-10 -66 0
-10 -9 0
-11 70 0
-11 -66 0
-11 -205 0
-14 70 0
-14 -66 0
-14 -205 0
-15 70 0
-15 -66 0
-16 70 0
-16 -66 0
-16 -205 0
-18 70 0
-18 -66 0
-19 -66 0
-19 -18 0
-20 69 0
-20 -66 0
-20 -18 0
-21 -66 0
-21 -18 0
-22 160 0
-22 -66 0
-22 -18 0
-23 -66 0
-23 -18 0
-24 -66 0
-24 -18 0
-25 -66 0
-25 -18 0
-26 -66 0
-26 -18 0
-27 70 0
-27 -66 0
-28 203 0
-28 70 0
-28 89 0
-28 193 0
-28 -66 0
-28 -142 0
-28 -195 0
-29 70 0
-29 -66 0
-31 70 0
-31 -66 0
-31 -30 0
-32 70 0
-32 -66 0
-33 70 0
-33 -66 0
-34 70 0
-34 -66 0
-35 70 0
-35 -66 0
-35 -205 0
-36 70 0
-36 -66 0
-37 70 0
-37 -66 0
-38 70 0
-38 -66 0
-39 70 0
-39 -66 0
-40 70 0
-40 -66 0
-40 -205 0
-41 70 0
-41 193 0
-41 -66 0
-41 -195 0
-42 70 0
-42 193 0
-42 -66 0
-42 -195 0
-43 70 0
-43 193 0
-43 -66 0
-43 -195 0
-44 70 0
-44 193 0
-44 -66 0
-44 -195 0
-45 70 0
-45 193 0
-45 -66 0
-45 -195 0
-46 70 0
-46 193 0
-46 3 0
-46 -66 0
-46 -142 0
-46 -195 0
-46 -207 0
-47 70 0
-47 -66 0
-49 70 0
-49 -66 0
-50 70 0
-50 -66 0
-51 70 0
-51 -66 0
-52 70 0
-52 89 0
-52 -66 0
-53 70 0
-53 -66 0
-54 70 0
-54 -66 0
-55 70 0
-55 -66 0
-56 70 0
-56 -66 0
-56 -205 0
-57 70 0
-57 -66 0
-58 70 0
-58 -66 0
-60 70 0
-60 -66 0
-61 -18 0
-61 -66 0
-65 70 0
-65 -66 0
-67 -18 0
-67 -66 0
-68 -18 0
-68 -66 0
-69 20 0
-69 -18 0
-69 -66 0
-70 -66 0
-71 70 0
-71 -66 0
-72 70 0
-72 -66 0
-73 70 0
-73 -66 0
-74 70 0
-74 -66 0
-75 70 0
-75 -66 0
-76 70 0
-76 -66 0
-77 70 0
-77 -66 0
-78 70 0
-78 -66 0
-79 70 0
-79 -66 0
-80 70 0
-80 -66 0
-81 70 0
-81 -66 0
-82 70 0
-82 -66 0
-83 70 0
-83 -66 0
-84 70 0
-84 -66 0
-85 70 0
-85 -66 0
-86 70 0
-86 -66 0
-87 70 0
-87 -66 0
-88 70 0
-88 -66 0
-88 -205 0
-89 70 0
-89 -66 0
-90 1 0
-90 70 0
-90 -66 0
-91 70 0
-91 -66 0
-92 70 0
-92 -66 0
-93 70 0
-93 -66 0
-94 70 0
-94 -66 0
-96 70 0
-96 -66 0
-97 70 0
-97 -66 0
-98 70 0
-98 -66 0
-100 70 0
-100 -66 0
-100 -207 0
-100 -99 0
-101 70 0
-101 -66 0
-102 70 0
-102 -66 0
-103 70 0
-103 -66 0
-104 -18 0
-105 70 0
-105 -66 0
-106 70 0
-106 -66 0
-107 70 0
-107 -66 0
-108 70 0
-108 -66 0
-109 70 0
-109 -66 0
-109 -110 0
-111 70 0
-111 -66 0
-111 -205 0
-112 70 0
-112 -66 0
-113 70 0
-113 -66 0
-114 70 0
-114 -66 0
-115 70 0
-115 -66 0
-116 70 0
-116 -66 0
-117 70 0
-117 -66 0
-118 70 0
-118 -66 0
-119 70 0
-119 -66 0
-120 70 0
-120 -66 0
-121 70 0
-121 -66 0
-122 70 0
-122 -66 0
-123 70 0
-123 -66 0
-124 70 0
-124 -66 0
-125 70 0
-125 -66 0
-126 70 0
-126 -66 0
-127 70 0
-127 -66 0
-128 70 0
-128 -66 0
-129 70 0
-129 -66 0
-130 70 0
-130 -66 0
-131 70 0
-131 -66 0
-132 70 0
-132 -66 0
-133 70 0
-133 -66 0
-134 70 0
-134 -66 0
-135 70 0
-135 -66 0
-136 70 0
-136 -66 0
-137 70 0
-137 -66 0
-138 70 0
-138 -66 0
-139 70 0
-139 -66 0
-140 70 0
-140 -66 0
-141 70 0
-141 89 0
-141 -66 0
-142 70 0
-142 -66 0
-143 203 0
-143 28 0
-143 70 0
-143 89 0
-143 193 0
-143 -66 0
-143 -142 0
-143 -195 0
-144 70 0
-144 -66 0
-144 -142 0
-145 70 0
-145 -66 0
-145 -142 0
-146 70 0
-146 -66 0
-146 -142 0
-147 70 0
-147 -66 0
-147 -142 0
-148 70 0
-148 -66 0
-149 70 0
-149 -66 0
-150 70 0
-150 -66 0
-151 70 0
-151 -66 0
-152 70 0
-152 -66 0
-153 70 0
-153 -66 0
-154 70 0
-154 -66 0
-155 70 0
-155 -66 0
-156 70 0
-156 -66 0
-157 70 0
-157 -66 0
-158 70 0
-158 -66 0
-159 70 0
-159 -66 0
-160 -18 0
-160 -66 0
-161 70 0
-161 -66 0
-161 -205 0
-162 70 0
-162 -66 0
-163 70 0
-163 -66 0
-164 70 0
-164 96 0
-164 -66 0
-164 -165 0
-166 70 0
-166 -66 0
-166 -142 0
-167 70 0
-167 -66 0
-168 70 0
-168 -66 0
-169 70 0
-169 -66 0
-170 70 0
-170 -66 0
-170 -205 0
-172 70 0
-172 -66 0
-172 -205 0
-173 70 0
-173 -66 0
-173 -205 0
-174 70 0
-174 -66 0
-174 -142 0
-175 70 0
-175 -66 0
-175 -142 0
-176 70 0
-176 -66 0
-178 70 0
-178 -66 0
-178 -142 0
-179 70 0
-179 -66 0
-180 70 0
-180 -66 0
-180 -142 0
-181 70 0
-181 -66 0
-182 70 0
-182 -66 0
-182 -142 0
-183 70 0
-183 -66 0
-183 -142 0
-184 70 0
-184 -66 0
-184 -205 0
-185 70 0
-185 -66 0
-185 -205 0
-186 70 0
-186 -66 0
-187 70 0
-187 -66 0
-188 70 0
-188 -66 0
-189 70 0
-189 96 0
-189 -66 0
-190 70 0
-190 -66 0
-191 70 0
-191 -66 0
-192 70 0
-192 -66 0
-193 70 0
-193 -66 0
-193 -195 0
-194 70 0
-194 -30 0
-194 -66 0
-194 -195 0
-196 70 0
-196 -66 0
-197 70 0
-197 -66 0
-198 70 0
-198 -66 0
-199 70 0
-199 -66 0
-200 70 0
-200 -66 0
-201 70 0
-201 -66 0
-202 70 0
-202 -66 0
-203 28 0
-203 70 0
-203 89 0
-203 193 0
-203 -66 0
-203 -142 0
-203 -195 0
-204 70 0
-204 -66 0
-204 -205 0
-205 70 0
-205 -66 0
-206 70 0
-206 -66 0
-208 70 0
-208 -66 0
-208 -207 0
-209 70 0
-209 -66 0
-210 70 0
-210 -66 0
-211 70 0
-211 -66 0
-212 70 0
-212 -66 0
-212 -207 0
-213 70 0
-213 -66 0
-213 -207 0
-214 70 0
-214 -66 0
-214 -207 0
-215 70 0
-215 -66 0
-216 70 0
-216 -66 0
-217 70 0
-217 -66 0
-218 70 0
-218 -66 0
-219 203 0
-219 28 0
-219 70 0
-219 89 0
-219 193 0
-219 -66 0
-219 -195 0
-219 -142 0
-220 203 0
-220 28 0
-220 70 0
-220 89 0
-220 193 0
-220 -66 0
-220 -195 0
-220 -142 0
-221 203 0
-221 28 0
-221 70 0
-221 89 0
-221 193 0
-221 -66 0
-221 -195 0
-221 -142 0
-222 203 0
-222 28 0
-222 70 0
-222 89 0
-222 193 0
-222 -66 0
-222 -195 0
-222 -142 0
-223 70 0
-223 -66 0
-223 -142 0
-1 70 0
-1 90 0
-1 -66 0
-2 1 0
-2 70 0
-2 -66 0
-3 70 0
-3 193 0
-3 -66 0
-3 -142 0
-3 -195 0
-3 -207 0
-4 70 0
-4 -66 0
-5 70 0
-5 -66 0
-5 -204 0
-6 70 0
-6 -66 0
-7 70 0
-7 -66 0
-8 70 0
-8 -66 0
-8 -9 0
-10 70 0
-10 -66 0
-10 -9 0
-11 70 0
-11 -66 0
-11 -204 0
-14 70 0
-14 -66 0
-14 -204 0
-15 70 0
-15 -66 0
-16 70 0
-16 -66 0
-16 -204 0
-18 70 0
-18 -66 0
-19 -66 0
-19 -18 0
-20 69 0
-20 -66 0
-20 -18 0
-21 -66 0
-21 -18 0
-22 160 0
-22 -66 0
-22 -18 0
-23 -66 0
-23 -18 0
-24 -66 0
-24 -18 0
-25 -66 0
-25 -18 0
-26 -66 0
-26 -18 0
-27 70 0
-27 -66 0
-28 203 0
-28 70 0
-28 89 0
-28 193 0
-28 -66 0
-28 -142 0
-28 -195 0
-29 70 0
-29 -66 0
-31 70 0
-31 -66 0
-31 -30 0
-32 70 0
-32 -66 0
-33 70 0
-33 -66 0
-34 70 0
-34 -66 0
-35 70 0
-35 -66 0
-35 -204 0
-36 70 0
-36 -66 0
-37 70 0
-37 -66 0
-38 70 0
-38 -66 0
-39 70 0
-39 -66 0
-40 70 0
-40 -66 0
-40 -204 0
-41 70 0
-41 193 0
-41 -66 0
-41 -195 0
-42 70 0
-42 193 0
-42 -66 0
-42 -195 0
-43 70 0
-43 193 0
-43 -66 0
-43 -195 0
-44 70 0
-44 193 0
-44 -66 0
-44 -195 0
-45 70 0
-45 193 0
-45 -66 0
-45 -195 0
-46 70 0
-46 193 0
-46 3 0
-46 -66 0
-46 -142 0
-46 -195 0
-46 -207 0
-47 70 0
-47 -66 0
-49 70 0
-49 -66 0
-50 70 0
-50 -66 0
-51 70 0
-51 -66 0
-52 70 0
-52 89 0
-52 -66 0
-53 70 0
-53 -66 0
-54 70 0
-54 -66 0
-55 70 0
-55 -66 0
-56 70 0
-56 -66 0
-56 -204 0
-57 70 0
-57 -66 0
-58 70 0
-58 -66 0
-60 70 0
-60 -66 0
-61 -18 0
-61 -66 0
-65 70 0
-65 -66 0
-67 -18 0
-67 -66 0
-68 -18 0
-68 -66 0
-69 20 0
-69 -18 0
-69 -66 0
-70 -66 0
-71 70 0
-71 -66 0
-72 70 0
-72 -66 0
-73 70 0
-73 -66 0
-74 70 0
-74 -66 0
-75 70 0
-75 -66 0
-76 70 0
-76 -66 0
-77 70 0
-77 -66 0
-78 70 0
-78 -66 0
-79 70 0
-79 -66 0
-80 70 0
-80 -66 0
-81 70 0
-81 -66 0
-82 70 0
-82 -66 0
-83 70 0
-83 -66 0
-84 70 0
-84 -66 0
-85 70 0
-85 -66 0
-86 70 0
-86 -66 0
-87 70 0
-87 -66 0
-88 70 0
-88 -66 0
-88 -204 0
-89 70 0
-89 -66 0
-90 1 0
-90 70 0
-90 -66 0
-91 70 0
-91 -66 0
-92 70 0
-92 -66 0
-93 70 0
-93 -66 0
-94 70 0
-94 -66 0
-96 70 0
-96 -66 0
-97 70 0
-97 -66 0
-98 70 0
-98 -66 0
-100 70 0
-100 -66 0
-100 -207 0
-100 -99 0
-101 70 0
-101 -66 0
-102 70 0
-102 -66 0
-103 70 0
-103 -66 0
-104 -18 0
-105 70 0
-105 -66 0
-106 70 0
-106 -66 0
-107 70 0
-107 -66 0
-108 70 0
-108 -66 0
-109 70 0
-109 -66 0
-109 -110 0
-111 70 0
-111 -66 0
-111 -204 0
-112 70 0
-112 -66 0
-113 70 0
-113 -66 0
-114 70 0
-114 -66 0
-115 70 0
-115 -66 0
-116 70 0
-116 -66 0
-117 70 0
-117 -66 0
-118 70 0
-118 -66 0
-119 70 0
-119 -66 0
-120 70 0
-120 -66 0
-121 70 0
-121 -66 0
-122 70 0
-122 -66 0
-123 70 0
-123 -66 0
-124 70 0
-124 -66 0
-125 70 0
-125 -66 0
-126 70 0
-126 -66 0
-127 70 0
-127 -66 0
-128 70 0
-128 -66 0
-129 70 0
-129 -66 0
-130 70 0
-130 -66 0
-131 70 0
-131 -66 0
-132 70 0
-132 -66 0
-133 70 0
-133 -66 0
-134 70 0
-134 -66 0
-135 70 0
-135 -66 0
-136 70 0
-136 -66 0
-137 70 0
-137 -66 0
-138 70 0
-138 -66 0
-139 70 0
-139 -66 0
-140 70 0
-140 -66 0
-141 70 0
-141 89 0
-141 -66 0
-142 70 0
-142 -66 0
-143 203 0
-143 28 0
-143 70 0
-143 89 0
-143 193 0
-143 -66 0
-143 -142 0
-143 -195 0
-144 70 0
-144 -66 0
-144 -142 0
-145 70 0
-145 -66 0
-145 -142 0
-146 70 0
-146 -66 0
-146 -142 0
-147 70 0
-147 -66 0
-147 -142 0
-148 70 0
-148 -66 0
-149 70 0
-149 -66 0
-150 70 0
-150 -66 0
-151 70 0
-151 -66 0
-152 70 0
-152 -66 0
-153 70 0
-153 -66 0
-154 70 0
-154 -66 0
-155 70 0
-155 -66 0
-156 70 0
-156 -66 0
-157 70 0
-157 -66 0
-158 70 0
-158 -66 0
-159 70 0
-159 -66 0
-160 -18 0
-160 -66 0
-161 70 0
-161 -66 0
-161 -204 0
-162 70 0
-162 -66 0
-163 70 0
-163 -66 0
-164 70 0
-164 96 0
-164 -66 0
-164 -165 0
-166 70 0
-166 -66 0
-166 -142 0
-167 70 0
-167 -66 0
-168 70 0
-168 -66 0
-169 70 0
-169 -66 0
-170 70 0
-170 -66 0
-170 -204 0
-172 70 0
-172 -66 0
-172 -204 0
-173 70 0
-173 -66 0
-173 -204 0
-174 70 0
-174 -66 0
-174 -142 0
-175 70 0
-175 -66 0
-175 -142 0
-176 70 0
-176 -66 0
-178 70 0
-178 -66 0
-178 -142 0
-179 70 0
-179 -66 0
-180 70 0
-180 -66 0
-180 -142 0
-181 70 0
-181 -66 0
-182 70 0
-182 -66 0
-182 -142 0
-183 70 0
-183 -66 0
-183 -142 0
-184 70 0
-184 -66 0
-184 -204 0
-185 70 0
-185 -66 0
-185 -204 0
-186 70 0
-186 -66 0
-187 70 0
-187 -66 0
-188 70 0
-188 -66 0
-189 70 0
-189 96 0
-189 -66 0
-190 70 0
-190 -66 0
-191 70 0
-191 -66 0
-192 70 0
-192 -66 0
-193 70 0
-193 -66 0
-193 -195 0
-194 70 0
-194 -30 0
-194 -66 0
-194 -195 0
-196 70 0
-196 -66 0
-197 70 0
-197 -66 0
-198 70 0
-198 -66 0
-199 70 0
-199 -66 0
-200 70 0
-200 -66 0
-201 70 0
-201 -66 0
-202 70 0
-202 -66 0
-203 28 0
-203 70 0
-203 89 0
-203 193 0
-203 -66 0
-203 -142 0
-203 -195 0
-204 70 0
-204 -66 0
-205 70 0
-205 -66 0
-205 -204 0
-206 70 0
-206 -66 0
-208 70 0
-208 -66 0
-208 -207 0
-209 70 0
-209 -66 0
-210 70 0
-210 -66 0
-211 70 0
-211 -66 0
-212 70 0
-212 -66 0
-212 -207 0
-213 70 0
-213 -66 0
-213 -207 0
-214 70 0
-214 -66 0
-214 -207 0
-215 70 0
-215 -66 0
-216 70 0
-216 -66 0
-217 70 0
-217 -66 0
-218 70 0
-218 -66 0
-219 203 0
-219 28 0
-219 70 0
-219 89 0
-219 193 0
-219 -66 0
-219 -195 0
-219 -142 0
-220 203 0
-220 28 0
-220 70 0
-220 89 0
-220 193 0
-220 -66 0
-220 -195 0
-220 -142 0
-221 203 0
-221 28 0
-221 70 0
-221 89 0
-221 193 0
-221 -66 0
-221 -195 0
-221 -142 0
-222 203 0
-222 28 0
-222 70 0
-222 89 0
-222 193 0
-222 -66 0
-222 -195 0
-222 -142 0
-223 70 0
-223 -66 0
-223 -142 0
-20 69 0
-20 -70 0
-20 -21 0
-18 70 0
-18 -69 0
-18 -20 0
